24
2 4 3 
3 20 11 40 
2 13 17 
3 46 32 34 
2 26 19 
2 29 5 
3 33 35 48 
2 38 8 
3 36 25 50 
3 54 41 5 
3 2 16 1 
3 10 9 57 
2 31 42 
3 23 15 49 
3 30 51 18 
3 58 53 27 
3 7 52 21 
2 37 55 
3 56 43 44 
3 22 60 15 
2 6 45 
2 53 59 
2 27 49 
1 47 
